
--- Job Elkem_v1.gms Start 11/19/25 11:58:37 39.1.1 dbf03b78 WEX-WEI x86 64bit/MS Windows
--- Applying:
    C:\GAMS\39\gmsprmNT.txt
--- GAMS Parameters defined
    Input "C:\Users\Nicolas\OneDrive\Documents\NTNU Fall 2025\Semesteroppgave\Prosjektoppgave_dekarbonisering_i_Mo_industripark\Elkem_v1.gms"
    PageSize 0
    ScrDir "C:\Users\Nicolas\OneDrive\Documents\NTNU Fall 2025\Semesteroppgave\Prosjektoppgave_dekarbonisering_i_Mo_industripark\225a\"
    SysDir C:\GAMS\39\
    LogOption 3
    ErrMsg 1
    ErrorLog 99
    IDE 1
    LstTitleLeftAligned 1
Licensee: Small MUD - 5 User License                     S240604|0002AP-GEN
          Norwegian University of Science and Technology             DC7530
          C:\Users\Nicolas\OneDrive\Documents\GAMS\gamslice.txt
          License Admin: Ruud Egging, ruud.egging@ntnu.no                  
Processor information: 1 socket(s), 4 core(s), and 8 thread(s) available
GAMS 39.1.1   Copyright (C) 1987-2022 GAMS Development. All rights reserved
--- Starting compilation
--- Elkem_v1.gms(515) 3 Mb
--- Starting execution: elapsed 0:00:00.012
--- Elkem_v1.gms(430) 4 Mb
--- Generating LP model Elkem_FeSi_Opt
--- Elkem_v1.gms(435) 5 Mb
---   1,579 rows  1,441 columns  4,703 non-zeroes
--- Range statistics (absolute non-zero finite values)
--- RHS       [min, max] : [ 3.948E+04, 1.902E+05] - Zero values observed as well
--- Bound     [min, max] : [        NA,        NA] - Zero values observed as well
--- Matrix    [min, max] : [ 1.000E-02, 3.330E+04]
--- Executing CPLEX (Solvelink=2): elapsed 0:00:00.015

IBM ILOG CPLEX   39.1.1 dbf03b78 May 18, 2022          WEI x86 64bit/MS Window

--- GAMS/Cplex licensed for continuous and discrete problems.
--- GMO setup time: 0.00s
--- Space for names approximately 0.08 Mb
--- Use option 'names no' to turn use of names off
--- GMO memory 0.85 Mb (peak 0.86 Mb)
--- Dictionary memory 0.00 Mb
--- Cplex 22.1.0.0 link memory 0.05 Mb (peak 0.20 Mb)
--- Starting Cplex

Version identifier: 22.1.0.0 | 2022-03-09 | 1a383f8ce
CPXPARAM_Advance                                 0
CPXPARAM_Threads                                 1
CPXPARAM_MIP_Display                             4
CPXPARAM_MIP_Pool_Capacity                       0
CPXPARAM_MIP_Tolerances_AbsMIPGap                0
Tried aggregator 1 time.
LP Presolve eliminated 994 rows and 435 columns.
Aggregator did 352 substitutions.
Reduced LP has 232 rows, 654 columns, and 2246 nonzeros.
Presolve time = 0.00 sec. (1.79 ticks)
Symmetry aggregator did 356 additional substitutions.

Iteration log . . .
Iteration:     1   Dual objective     =      15212304.000000
Iteration:    62   Dual objective     =     575986807.216550

Dual crossover.
  Dual:  Fixing 18 variables.
       17 DMoves:  Infeasibility  6.78568313e-13  Objective  7.94412594e+08
        0 DMoves:  Infeasibility  6.27487049e-13  Objective  7.94412594e+08
  Dual:  Pushed 0, exchanged 18.
  Primal:  Fixing 57 variables.
       56 PMoves:  Infeasibility  0.00000000e+00  Objective  7.94412594e+08
        0 PMoves:  Infeasibility  2.72848411e-12  Objective  7.94412594e+08
  Primal:  Pushed 39, exchanged 18.

--- LP status (1): optimal.
--- Cplex Time: 0.00sec (det. 3.59 ticks)


Optimal solution found
Objective:    794412593.995058

--- Reading solution for model Elkem_FeSi_Opt
--- Executing after solve: elapsed 0:00:00.065
--- Elkem_v1.gms(484) 5 Mb
--- GDX File (execute_unload) C:\Users\Nicolas\OneDrive\Documents\NTNU Fall 2025\Semesteroppgave\Prosjektoppgave_dekarbonisering_i_Mo_industripark\output_Elkem_FeSi.gdx
--- Elkem_v1.gms(515) 5 Mb
*** Status: Normal completion
--- Job Elkem_v1.gms Stop 11/19/25 11:58:37 elapsed 0:00:00.065
